parte1/mn27.0.lp
\* Problem: mn27 *\

Minimize
 num_color: + y(1) + y(2) + y(3) + y(4) + y(5) + y(6) + y(7)

Subject To
 vertex(1): + x(1,1) + x(1,2) + x(1,3) + x(1,4) + x(1,5) + x(1,6)
 + x(1,7) = 1
 vertex(2): + x(2,1) + x(2,2) + x(2,3) + x(2,4) + x(2,5) + x(2,6)
 + x(2,7) = 1
 vertex(3): + x(3,1) + x(3,2) + x(3,3) + x(3,4) + x(3,5) + x(3,6)
 + x(3,7) = 1
 vertex(4): + x(4,1) + x(4,2) + x(4,3) + x(4,4) + x(4,5) + x(4,6)
 + x(4,7) = 1
 vertex(5): + x(5,1) + x(5,2) + x(5,3) + x(5,4) + x(5,5) + x(5,6)
 + x(5,7) = 1
 vertex(6): + x(6,1) + x(6,2) + x(6,3) + x(6,4) + x(6,5) + x(6,6)
 + x(6,7) = 1
 vertex(7): + x(7,1) + x(7,2) + x(7,3) + x(7,4) + x(7,5) + x(7,6)
 + x(7,7) = 1
 vertex_color(1,1): + x(1,1) - y(1) <= -0
 vertex_color(1,2): + x(1,2) - y(2) <= -0
 vertex_color(1,3): + x(1,3) - y(3) <= -0
 vertex_color(1,4): + x(1,4) - y(4) <= -0
 vertex_color(1,5): + x(1,5) - y(5) <= -0
 vertex_color(1,6): + x(1,6) - y(6) <= -0
 vertex_color(1,7): + x(1,7) - y(7) <= -0
 vertex_color(2,1): + x(2,1) - y(1) <= -0
 vertex_color(2,2): + x(2,2) - y(2) <= -0
 vertex_color(2,3): + x(2,3) - y(3) <= -0
 vertex_color(2,4): + x(2,4) - y(4) <= -0
 vertex_color(2,5): + x(2,5) - y(5) <= -0
 vertex_color(2,6): + x(2,6) - y(6) <= -0
 vertex_color(2,7): + x(2,7) - y(7) <= -0
 vertex_color(3,1): + x(3,1) - y(1) <= -0
 vertex_color(3,2): + x(3,2) - y(2) <= -0
 vertex_color(3,3): + x(3,3) - y(3) <= -0
 vertex_color(3,4): + x(3,4) - y(4) <= -0
 vertex_color(3,5): + x(3,5) - y(5) <= -0
 vertex_color(3,6): + x(3,6) - y(6) <= -0
 vertex_color(3,7): + x(3,7) - y(7) <= -0
 vertex_color(4,1): + x(4,1) - y(1) <= -0
 vertex_color(4,2): + x(4,2) - y(2) <= -0
 vertex_color(4,3): + x(4,3) - y(3) <= -0
 vertex_color(4,4): + x(4,4) - y(4) <= -0
 vertex_color(4,5): + x(4,5) - y(5) <= -0
 vertex_color(4,6): + x(4,6) - y(6) <= -0
 vertex_color(4,7): + x(4,7) - y(7) <= -0
 vertex_color(5,1): + x(5,1) - y(1) <= -0
 vertex_color(5,2): + x(5,2) - y(2) <= -0
 vertex_color(5,3): + x(5,3) - y(3) <= -0
 vertex_color(5,4): + x(5,4) - y(4) <= -0
 vertex_color(5,5): + x(5,5) - y(5) <= -0
 vertex_color(5,6): + x(5,6) - y(6) <= -0
 vertex_color(5,7): + x(5,7) - y(7) <= -0
 vertex_color(6,1): + x(6,1) - y(1) <= -0
 vertex_color(6,2): + x(6,2) - y(2) <= -0
 vertex_color(6,3): + x(6,3) - y(3) <= -0
 vertex_color(6,4): + x(6,4) - y(4) <= -0
 vertex_color(6,5): + x(6,5) - y(5) <= -0
 vertex_color(6,6): + x(6,6) - y(6) <= -0
 vertex_color(6,7): + x(6,7) - y(7) <= -0
 vertex_color(7,1): + x(7,1) - y(1) <= -0
 vertex_color(7,2): + x(7,2) - y(2) <= -0
 vertex_color(7,3): + x(7,3) - y(3) <= -0
 vertex_color(7,4): + x(7,4) - y(4) <= -0
 vertex_color(7,5): + x(7,5) - y(5) <= -0
 vertex_color(7,6): + x(7,6) - y(6) <= -0
 vertex_color(7,7): + x(7,7) - y(7) <= -0
 edge(1,2,1): + x(1,1) + x(2,1) <= 1
 edge(1,2,2): + x(1,2) + x(2,2) <= 1
 edge(1,2,3): + x(1,3) + x(2,3) <= 1
 edge(1,2,4): + x(1,4) + x(2,4) <= 1
 edge(1,2,5): + x(1,5) + x(2,5) <= 1
 edge(1,2,6): + x(1,6) + x(2,6) <= 1
 edge(1,2,7): + x(1,7) + x(2,7) <= 1
 edge(1,3,1): + x(1,1) + x(3,1) <= 1
 edge(1,3,2): + x(1,2) + x(3,2) <= 1
 edge(1,3,3): + x(1,3) + x(3,3) <= 1
 edge(1,3,4): + x(1,4) + x(3,4) <= 1
 edge(1,3,5): + x(1,5) + x(3,5) <= 1
 edge(1,3,6): + x(1,6) + x(3,6) <= 1
 edge(1,3,7): + x(1,7) + x(3,7) <= 1
 edge(2,4,1): + x(2,1) + x(4,1) <= 1
 edge(2,4,2): + x(2,2) + x(4,2) <= 1
 edge(2,4,3): + x(2,3) + x(4,3) <= 1
 edge(2,4,4): + x(2,4) + x(4,4) <= 1
 edge(2,4,5): + x(2,5) + x(4,5) <= 1
 edge(2,4,6): + x(2,6) + x(4,6) <= 1
 edge(2,4,7): + x(2,7) + x(4,7) <= 1
 edge(3,4,1): + x(3,1) + x(4,1) <= 1
 edge(3,4,2): + x(3,2) + x(4,2) <= 1
 edge(3,4,3): + x(3,3) + x(4,3) <= 1
 edge(3,4,4): + x(3,4) + x(4,4) <= 1
 edge(3,4,5): + x(3,5) + x(4,5) <= 1
 edge(3,4,6): + x(3,6) + x(4,6) <= 1
 edge(3,4,7): + x(3,7) + x(4,7) <= 1
 edge(3,5,1): + x(3,1) + x(5,1) <= 1
 edge(3,5,2): + x(3,2) + x(5,2) <= 1
 edge(3,5,3): + x(3,3) + x(5,3) <= 1
 edge(3,5,4): + x(3,4) + x(5,4) <= 1
 edge(3,5,5): + x(3,5) + x(5,5) <= 1
 edge(3,5,6): + x(3,6) + x(5,6) <= 1
 edge(3,5,7): + x(3,7) + x(5,7) <= 1
 edge(4,5,1): + x(4,1) + x(5,1) <= 1
 edge(4,5,2): + x(4,2) + x(5,2) <= 1
 edge(4,5,3): + x(4,3) + x(5,3) <= 1
 edge(4,5,4): + x(4,4) + x(5,4) <= 1
 edge(4,5,5): + x(4,5) + x(5,5) <= 1
 edge(4,5,6): + x(4,6) + x(5,6) <= 1
 edge(4,5,7): + x(4,7) + x(5,7) <= 1
 edge(4,6,1): + x(4,1) + x(6,1) <= 1
 edge(4,6,2): + x(4,2) + x(6,2) <= 1
 edge(4,6,3): + x(4,3) + x(6,3) <= 1
 edge(4,6,4): + x(4,4) + x(6,4) <= 1
 edge(4,6,5): + x(4,5) + x(6,5) <= 1
 edge(4,6,6): + x(4,6) + x(6,6) <= 1
 edge(4,6,7): + x(4,7) + x(6,7) <= 1
 edge(4,7,1): + x(4,1) + x(7,1) <= 1
 edge(4,7,2): + x(4,2) + x(7,2) <= 1
 edge(4,7,3): + x(4,3) + x(7,3) <= 1
 edge(4,7,4): + x(4,4) + x(7,4) <= 1
 edge(4,7,5): + x(4,5) + x(7,5) <= 1
 edge(4,7,6): + x(4,6) + x(7,6) <= 1
 edge(4,7,7): + x(4,7) + x(7,7) <= 1
 edge(5,6,1): + x(5,1) + x(6,1) <= 1
 edge(5,6,2): + x(5,2) + x(6,2) <= 1
 edge(5,6,3): + x(5,3) + x(6,3) <= 1
 edge(5,6,4): + x(5,4) + x(6,4) <= 1
 edge(5,6,5): + x(5,5) + x(6,5) <= 1
 edge(5,6,6): + x(5,6) + x(6,6) <= 1
 edge(5,6,7): + x(5,7) + x(6,7) <= 1
 edge(6,7,1): + x(6,1) + x(7,1) <= 1
 edge(6,7,2): + x(6,2) + x(7,2) <= 1
 edge(6,7,3): + x(6,3) + x(7,3) <= 1
 edge(6,7,4): + x(6,4) + x(7,4) <= 1
 edge(6,7,5): + x(6,5) + x(7,5) <= 1
 edge(6,7,6): + x(6,6) + x(7,6) <= 1
 edge(6,7,7): + x(6,7) + x(7,7) <= 1

Bounds
 0 <= x(1,1) <= 1
 0 <= x(1,2) <= 1
 0 <= x(1,3) <= 1
 0 <= x(1,4) <= 1
 0 <= x(1,5) <= 1
 0 <= x(1,6) <= 1
 0 <= x(1,7) <= 1
 0 <= x(2,1) <= 1
 0 <= x(2,2) <= 1
 0 <= x(2,3) <= 1
 0 <= x(2,4) <= 1
 0 <= x(2,5) <= 1
 0 <= x(2,6) <= 1
 0 <= x(2,7) <= 1
 0 <= x(3,1) <= 1
 0 <= x(3,2) <= 1
 0 <= x(3,3) <= 1
 0 <= x(3,4) <= 1
 0 <= x(3,5) <= 1
 0 <= x(3,6) <= 1
 0 <= x(3,7) <= 1
 0 <= x(4,1) <= 1
 0 <= x(4,2) <= 1
 0 <= x(4,3) <= 1
 0 <= x(4,4) <= 1
 0 <= x(4,5) <= 1
 0 <= x(4,6) <= 1
 0 <= x(4,7) <= 1
 0 <= x(5,1) <= 1
 0 <= x(5,2) <= 1
 0 <= x(5,3) <= 1
 0 <= x(5,4) <= 1
 0 <= x(5,5) <= 1
 0 <= x(5,6) <= 1
 0 <= x(5,7) <= 1
 0 <= x(6,1) <= 1
 0 <= x(6,2) <= 1
 0 <= x(6,3) <= 1
 0 <= x(6,4) <= 1
 0 <= x(6,5) <= 1
 0 <= x(6,6) <= 1
 0 <= x(6,7) <= 1
 0 <= x(7,1) <= 1
 0 <= x(7,2) <= 1
 0 <= x(7,3) <= 1
 0 <= x(7,4) <= 1
 0 <= x(7,5) <= 1
 0 <= x(7,6) <= 1
 0 <= x(7,7) <= 1
 0 <= y(1) <= 1
 0 <= y(2) <= 1
 0 <= y(3) <= 1
 0 <= y(4) <= 1
 0 <= y(5) <= 1
 0 <= y(6) <= 1
 0 <= y(7) <= 1

Generals
 x(1,1)
 x(1,2)
 x(1,3)
 x(1,4)
 x(1,5)
 x(1,6)
 x(1,7)
 x(2,1)
 x(2,2)
 x(2,3)
 x(2,4)
 x(2,5)
 x(2,6)
 x(2,7)
 x(3,1)
 x(3,2)
 x(3,3)
 x(3,4)
 x(3,5)
 x(3,6)
 x(3,7)
 x(4,1)
 x(4,2)
 x(4,3)
 x(4,4)
 x(4,5)
 x(4,6)
 x(4,7)
 x(5,1)
 x(5,2)
 x(5,3)
 x(5,4)
 x(5,5)
 x(5,6)
 x(5,7)
 x(6,1)
 x(6,2)
 x(6,3)
 x(6,4)
 x(6,5)
 x(6,6)
 x(6,7)
 x(7,1)
 x(7,2)
 x(7,3)
 x(7,4)
 x(7,5)
 x(7,6)
 x(7,7)
 y(1)
 y(2)
 y(3)
 y(4)
 y(5)
 y(6)
 y(7)

End
