parte1/mn27.0.txt
Problem:    mn27
Rows:       127
Columns:    56 (56 integer, 56 binary)
Non-zeros:  294
Status:     INTEGER OPTIMAL
Objective:  num_color = 3 (MINimum)

   No.   Row name        Activity     Lower bound   Upper bound
------ ------------    ------------- ------------- -------------
     1 vertex[1]                   1             1             = 
     2 vertex[2]                   1             1             = 
     3 vertex[3]                   1             1             = 
     4 vertex[4]                   1             1             = 
     5 vertex[5]                   1             1             = 
     6 vertex[6]                   1             1             = 
     7 vertex[7]                   1             1             = 
     8 vertex_color[1,1]
                                   0                          -0 
     9 vertex_color[1,2]
                                  -1                          -0 
    10 vertex_color[1,3]
                                  -1                          -0 
    11 vertex_color[1,4]
                                   0                          -0 
    12 vertex_color[1,5]
                                   0                          -0 
    13 vertex_color[1,6]
                                   0                          -0 
    14 vertex_color[1,7]
                                   0                          -0 
    15 vertex_color[2,1]
                                   0                          -0 
    16 vertex_color[2,2]
                                   0                          -0 
    17 vertex_color[2,3]
                                  -1                          -0 
    18 vertex_color[2,4]
                                   0                          -0 
    19 vertex_color[2,5]
                                   0                          -0 
    20 vertex_color[2,6]
                                   0                          -0 
    21 vertex_color[2,7]
                                  -1                          -0 
    22 vertex_color[3,1]
                                   0                          -0 
    23 vertex_color[3,2]
                                   0                          -0 
    24 vertex_color[3,3]
                                  -1                          -0 
    25 vertex_color[3,4]
                                   0                          -0 
    26 vertex_color[3,5]
                                   0                          -0 
    27 vertex_color[3,6]
                                   0                          -0 
    28 vertex_color[3,7]
                                  -1                          -0 
    29 vertex_color[4,1]
                                   0                          -0 
    30 vertex_color[4,2]
                                  -1                          -0 
    31 vertex_color[4,3]
                                  -1                          -0 
    32 vertex_color[4,4]
                                   0                          -0 
    33 vertex_color[4,5]
                                   0                          -0 
    34 vertex_color[4,6]
                                   0                          -0 
    35 vertex_color[4,7]
                                   0                          -0 
    36 vertex_color[5,1]
                                   0                          -0 
    37 vertex_color[5,2]
                                  -1                          -0 
    38 vertex_color[5,3]
                                   0                          -0 
    39 vertex_color[5,4]
                                   0                          -0 
    40 vertex_color[5,5]
                                   0                          -0 
    41 vertex_color[5,6]
                                   0                          -0 
    42 vertex_color[5,7]
                                  -1                          -0 
    43 vertex_color[6,1]
                                   0                          -0 
    44 vertex_color[6,2]
                                   0                          -0 
    45 vertex_color[6,3]
                                  -1                          -0 
    46 vertex_color[6,4]
                                   0                          -0 
    47 vertex_color[6,5]
                                   0                          -0 
    48 vertex_color[6,6]
                                   0                          -0 
    49 vertex_color[6,7]
                                  -1                          -0 
    50 vertex_color[7,1]
                                   0                          -0 
    51 vertex_color[7,2]
                                  -1                          -0 
    52 vertex_color[7,3]
                                   0                          -0 
    53 vertex_color[7,4]
                                   0                          -0 
    54 vertex_color[7,5]
                                   0                          -0 
    55 vertex_color[7,6]
                                   0                          -0 
    56 vertex_color[7,7]
                                  -1                          -0 
    57 edge[1,2,1]                 0                           1 
    58 edge[1,2,2]                 1                           1 
    59 edge[1,2,3]                 0                           1 
    60 edge[1,2,4]                 0                           1 
    61 edge[1,2,5]                 0                           1 
    62 edge[1,2,6]                 0                           1 
    63 edge[1,2,7]                 1                           1 
    64 edge[1,3,1]                 0                           1 
    65 edge[1,3,2]                 1                           1 
    66 edge[1,3,3]                 0                           1 
    67 edge[1,3,4]                 0                           1 
    68 edge[1,3,5]                 0                           1 
    69 edge[1,3,6]                 0                           1 
    70 edge[1,3,7]                 1                           1 
    71 edge[2,4,1]                 0                           1 
    72 edge[2,4,2]                 1                           1 
    73 edge[2,4,3]                 0                           1 
    74 edge[2,4,4]                 0                           1 
    75 edge[2,4,5]                 0                           1 
    76 edge[2,4,6]                 0                           1 
    77 edge[2,4,7]                 1                           1 
    78 edge[3,4,1]                 0                           1 
    79 edge[3,4,2]                 1                           1 
    80 edge[3,4,3]                 0                           1 
    81 edge[3,4,4]                 0                           1 
    82 edge[3,4,5]                 0                           1 
    83 edge[3,4,6]                 0                           1 
    84 edge[3,4,7]                 1                           1 
    85 edge[3,5,1]                 0                           1 
    86 edge[3,5,2]                 1                           1 
    87 edge[3,5,3]                 1                           1 
    88 edge[3,5,4]                 0                           1 
    89 edge[3,5,5]                 0                           1 
    90 edge[3,5,6]                 0                           1 
    91 edge[3,5,7]                 0                           1 
    92 edge[4,5,1]                 0                           1 
    93 edge[4,5,2]                 0                           1 
    94 edge[4,5,3]                 1                           1 
    95 edge[4,5,4]                 0                           1 
    96 edge[4,5,5]                 0                           1 
    97 edge[4,5,6]                 0                           1 
    98 edge[4,5,7]                 1                           1 
    99 edge[4,6,1]                 0                           1 
   100 edge[4,6,2]                 1                           1 
   101 edge[4,6,3]                 0                           1 
   102 edge[4,6,4]                 0                           1 
   103 edge[4,6,5]                 0                           1 
   104 edge[4,6,6]                 0                           1 
   105 edge[4,6,7]                 1                           1 
   106 edge[4,7,1]                 0                           1 
   107 edge[4,7,2]                 0                           1 
   108 edge[4,7,3]                 1                           1 
   109 edge[4,7,4]                 0                           1 
   110 edge[4,7,5]                 0                           1 
   111 edge[4,7,6]                 0                           1 
   112 edge[4,7,7]                 1                           1 
   113 edge[5,6,1]                 0                           1 
   114 edge[5,6,2]                 1                           1 
   115 edge[5,6,3]                 1                           1 
   116 edge[5,6,4]                 0                           1 
   117 edge[5,6,5]                 0                           1 
   118 edge[5,6,6]                 0                           1 
   119 edge[5,6,7]                 0                           1 
   120 edge[6,7,1]                 0                           1 
   121 edge[6,7,2]                 1                           1 
   122 edge[6,7,3]                 1                           1 
   123 edge[6,7,4]                 0                           1 
   124 edge[6,7,5]                 0                           1 
   125 edge[6,7,6]                 0                           1 
   126 edge[6,7,7]                 0                           1 
   127 num_color                   3                             

   No. Column name       Activity     Lower bound   Upper bound
------ ------------    ------------- ------------- -------------
     1 x[1,1]       *              0             0             1 
     2 x[1,2]       *              0             0             1 
     3 x[1,3]       *              0             0             1 
     4 x[1,4]       *              0             0             1 
     5 x[1,5]       *              0             0             1 
     6 x[1,6]       *              0             0             1 
     7 x[1,7]       *              1             0             1 
     8 x[2,1]       *              0             0             1 
     9 x[2,2]       *              1             0             1 
    10 x[2,3]       *              0             0             1 
    11 x[2,4]       *              0             0             1 
    12 x[2,5]       *              0             0             1 
    13 x[2,6]       *              0             0             1 
    14 x[2,7]       *              0             0             1 
    15 x[3,1]       *              0             0             1 
    16 x[3,2]       *              1             0             1 
    17 x[3,3]       *              0             0             1 
    18 x[3,4]       *              0             0             1 
    19 x[3,5]       *              0             0             1 
    20 x[3,6]       *              0             0             1 
    21 x[3,7]       *              0             0             1 
    22 x[4,1]       *              0             0             1 
    23 x[4,2]       *              0             0             1 
    24 x[4,3]       *              0             0             1 
    25 x[4,4]       *              0             0             1 
    26 x[4,5]       *              0             0             1 
    27 x[4,6]       *              0             0             1 
    28 x[4,7]       *              1             0             1 
    29 x[5,1]       *              0             0             1 
    30 x[5,2]       *              0             0             1 
    31 x[5,3]       *              1             0             1 
    32 x[5,4]       *              0             0             1 
    33 x[5,5]       *              0             0             1 
    34 x[5,6]       *              0             0             1 
    35 x[5,7]       *              0             0             1 
    36 x[6,1]       *              0             0             1 
    37 x[6,2]       *              1             0             1 
    38 x[6,3]       *              0             0             1 
    39 x[6,4]       *              0             0             1 
    40 x[6,5]       *              0             0             1 
    41 x[6,6]       *              0             0             1 
    42 x[6,7]       *              0             0             1 
    43 x[7,1]       *              0             0             1 
    44 x[7,2]       *              0             0             1 
    45 x[7,3]       *              1             0             1 
    46 x[7,4]       *              0             0             1 
    47 x[7,5]       *              0             0             1 
    48 x[7,6]       *              0             0             1 
    49 x[7,7]       *              0             0             1 
    50 y[1]         *              0             0             1 
    51 y[2]         *              1             0             1 
    52 y[3]         *              1             0             1 
    53 y[4]         *              0             0             1 
    54 y[5]         *              0             0             1 
    55 y[6]         *              0             0             1 
    56 y[7]         *              1             0             1 

Integer feasibility conditions:

KKT.PE: max.abs.err = 0.00e+00 on row 0
        max.rel.err = 0.00e+00 on row 0
        High quality

KKT.PB: max.abs.err = 0.00e+00 on row 0
        max.rel.err = 0.00e+00 on row 0
        High quality

End of output
